NAME : BB70.2952261.tour
COMMENT : Cost = 0_2952261
COMMENT : Found by LKH [Keld Helsgaun] Sun Apr 23 15:14:35 2017
TYPE : TOUR
DIMENSION : 146
TOUR_SECTION
1
44
60
114
50
120
34
15
104
130
85
55
125
63
133
35
105
56
126
7
77
33
103
53
68
123
138
145
11
81
45
115
36
106
3
73
61
29
99
131
47
117
10
69
139
80
20
58
90
2
72
128
144
52
122
13
83
25
66
95
136
27
97
41
111
38
108
31
101
17
87
67
137
146
18
88
32
102
12
82
16
86
65
135
59
37
107
129
54
124
26
96
14
84
24
94
142
28
98
57
127
71
141
64
134
48
118
6
76
40
110
39
109
46
116
143
30
100
19
89
51
121
4
74
9
79
21
62
91
132
5
75
49
119
23
93
43
113
42
8
22
112
92
78
70
140
-1
EOF
